data;
/* data  section */

set TYPE := M1 M2 M3;
set COMP := C1 C2 C3 C4 C5 C6;
set NOSE := C1 C4;
set TAIL := C3 C6;

param Volume:=
M1		0.006
M2		0.008
M3		0.03;

param NumberM:=
M1		22
M2		18
M3		11;

param Cost:=
M1		10
M2		20
M3		30;

param Weight:=
M1		7
M2		8
M3		10;

param Allowed_Weight:=
C1		50
C2		60
C3		40
C4		50
C5		60
C6		40;

param Allowed_Volume:=
C1		0.1
C2		0.15
C3		0.07
C4		0.1
C5		0.15
C6		0.07;

end;
